data/solutions/recovery/degenerate/moderate/flexible/degenerate_moderate_instance36/37.sol
Elapsed time: 9.65
Upper bound: 1410124427.0
Planning weighted value: 37696564883.0
C[0]=1410124427.0
C[1]=1410104056.0
C[2]=1410064270.0
C[3]=1409710261.0
C[4]=0.0
y[0]=3
y[1]=0
y[2]=3
y[3]=1
y[4]=3
y[5]=3
y[6]=3
y[7]=1
y[8]=1
y[9]=1
y[10]=1
y[11]=2
y[12]=1
y[13]=3
y[14]=1
y[15]=0
y[16]=2
y[17]=3
y[18]=2
y[19]=3
y[20]=1
y[21]=0
y[22]=2
y[23]=2
y[24]=2
y[25]=3
y[26]=2
y[27]=3
y[28]=2
y[29]=1
y[30]=3
y[31]=1
y[32]=0
y[33]=0
y[34]=1
y[35]=2
y[36]=2
y[37]=1
y[38]=3
y[39]=0
y[40]=1
y[41]=0
y[42]=1
y[43]=1
y[44]=3
y[45]=0
