data/solutions/recovery/degenerate/moderate/flexible/degenerate_moderate_instance36/37.log

Log started (V12.6.3.0) Sat Apr 21 11:30:26 2018

New value for default parallel thread count: 1

Problem '/tmp/tmpaRDxG2.pyomo.lp' read.
Read time = 0.00 sec. (0.10 ticks)

Problem name         : /tmp/tmpaRDxG2.pyomo.lp
Objective sense      : Minimize
Variables            :     237  [Nneg: 1,  Binary: 230,  General Integer: 6]
Objective nonzeros   :       1
Linear constraints   :     104  [Less: 51,  Equal: 53]
  Nonzeros           :    6962
  RHS nonzeros       :      93

Variables            : Min LB: 0.000000         Max UB: 1.000000       
Objective nonzeros   : Min   : 1.000000         Max   : 1.000000       
Linear constraints   :
  Nonzeros           : Min   : 1.000000         Max   : 2.657465e+08   
  RHS nonzeros       : Min   : 1.000000         Max   : 5.000000       
Tried aggregator 1 time.
MIP Presolve eliminated 49 rows and 48 columns.
Reduced MIP has 55 rows, 189 columns, and 485 nonzeros.
Reduced MIP has 184 binaries, 5 generals, 0 SOSs, and 0 indicators.
Presolve time = 0.00 sec. (1.30 ticks)
Found incumbent of value 2.6819749e+09 after 0.00 sec. (1.53 ticks)
Probing time = 0.00 sec. (0.37 ticks)
Tried aggregator 1 time.
Reduced MIP has 55 rows, 189 columns, and 485 nonzeros.
Reduced MIP has 184 binaries, 5 generals, 0 SOSs, and 0 indicators.
Presolve time = 0.00 sec. (0.31 ticks)
Probing time = 0.00 sec. (0.37 ticks)
Clique table members: 46.
MIP emphasis: balance optimality and feasibility.
MIP search method: dynamic search.
Parallel mode: none, using 1 thread.
Root relaxation solution time = 0.00 sec. (0.76 ticks)

        Nodes                                         Cuts/
   Node  Left     Objective  IInf  Best Integer    Best Bound    ItCnt     Gap

*     0+    0                       2.68197e+09        0.0000           100.00%
      0     0   1.41000e+09    13   2.68197e+09   1.41000e+09      142   47.43%
*     0+    0                       1.45870e+09   1.41000e+09             3.34%
*     0+    0                       1.43096e+09   1.41000e+09             1.46%
*     0+    0                       1.41895e+09   1.41000e+09             0.63%
      0     2   1.41000e+09    13   1.41895e+09   1.41000e+09      142    0.63%
Elapsed time = 0.01 sec. (9.20 ticks, tree = 0.01 MB, solutions = 4)
*    30+   28                       1.41349e+09   1.41000e+09             0.25%
*   129    85      integral     0   1.41304e+09   1.41000e+09      643    0.22%
*   208   114      integral     0   1.41220e+09   1.41000e+09      860    0.16%
*   230+  120                       1.41096e+09   1.41000e+09             0.07%
*   667   249      integral     0   1.41078e+09   1.41000e+09     1928    0.05%
*  2072   236      integral     0   1.41047e+09   1.41000e+09     5154    0.03%
   2172   265   1.41000e+09     6   1.41047e+09   1.41000e+09     5340    0.03%
   2173   264    infeasible         1.41047e+09   1.41000e+09     5340    0.03%
   2174   263        cutoff         1.41047e+09   1.41000e+09     5342    0.03%
   2175   262    infeasible         1.41047e+09   1.41000e+09     5342    0.03%
   2176   261    infeasible         1.41047e+09   1.41000e+09     5343    0.03%
   2177   260        cutoff         1.41047e+09   1.41000e+09     5345    0.03%
   2178   259        cutoff         1.41047e+09   1.41000e+09     5351    0.03%
   2179   258        cutoff         1.41047e+09   1.41000e+09     5357    0.03%
   2180   257    infeasible         1.41047e+09   1.41000e+09     5361    0.03%
*  4869  1045      integral     0   1.41036e+09   1.41000e+09    13509    0.03%
   5138  1074    infeasible         1.41036e+09   1.41000e+09    14403    0.03%
Elapsed time = 1.17 sec. (963.01 ticks, tree = 0.38 MB, solutions = 11)
*  6695  1277      integral     0   1.41026e+09   1.41000e+09    19439    0.02%
  11788  2881    infeasible         1.41026e+09   1.41000e+09    35725    0.02%
  11789  2880        cutoff         1.41026e+09   1.41000e+09    35733    0.02%
  11790  2881   1.41000e+09     6   1.41026e+09   1.41000e+09    35734    0.02%
  11791  2880        cutoff         1.41026e+09   1.41000e+09    35739    0.02%
  11792  2881   1.41000e+09     6   1.41026e+09   1.41000e+09    35741    0.02%
  11793  2882   1.41000e+09     6   1.41026e+09   1.41000e+09    35742    0.02%
  11794  2883   1.41000e+09     6   1.41026e+09   1.41000e+09    35743    0.02%
  11795  2884   1.41000e+09     6   1.41026e+09   1.41000e+09    35744    0.02%
  11796  2885   1.41000e+09     6   1.41026e+09   1.41000e+09    35745    0.02%
  11797  2886   1.41000e+09     6   1.41026e+09   1.41000e+09    35746    0.02%
Elapsed time = 2.39 sec. (1918.01 ticks, tree = 0.99 MB, solutions = 12)
  20298  3593   1.41000e+09     6   1.41026e+09   1.41000e+09    65646    0.02%
  20299  3594   1.41000e+09     6   1.41026e+09   1.41000e+09    65647    0.02%
  20300  3595   1.41000e+09     6   1.41026e+09   1.41000e+09    65648    0.02%
  20301  3596   1.41000e+09     6   1.41026e+09   1.41000e+09    65649    0.02%
  20302  3597   1.41000e+09     8   1.41026e+09   1.41000e+09    65651    0.02%
  20303  3598   1.41000e+09     5   1.41026e+09   1.41000e+09    65653    0.02%
  20304  3599   1.41000e+09     5   1.41026e+09   1.41000e+09    65655    0.02%
  20305  3600   1.41000e+09     6   1.41026e+09   1.41000e+09    65656    0.02%
  20306  3601   1.41000e+09     6   1.41026e+09   1.41000e+09    65657    0.02%
  20307  3602   1.41000e+09     6   1.41026e+09   1.41000e+09    65658    0.02%
Elapsed time = 3.57 sec. (2872.02 ticks, tree = 1.22 MB, solutions = 12)
* 22517  3776      integral     0   1.41025e+09   1.41000e+09    73660    0.02%
  28515  4212        cutoff         1.41025e+09   1.41000e+09    96471    0.02%
  28516  4213   1.41000e+09     8   1.41025e+09   1.41000e+09    96475    0.02%
  28517  4214   1.41000e+09     6   1.41025e+09   1.41000e+09    96476    0.02%
  28518  4215   1.41000e+09     6   1.41025e+09   1.41000e+09    96480    0.02%
  28519  4216   1.41000e+09     6   1.41025e+09   1.41000e+09    96485    0.02%
  28520  4217   1.41000e+09     6   1.41025e+09   1.41000e+09    96486    0.02%
  28521  4216        cutoff         1.41025e+09   1.41000e+09    96493    0.02%
  28522  4217   1.41000e+09     6   1.41025e+09   1.41000e+09    96502    0.02%
  28523  4218   1.41000e+09     6   1.41025e+09   1.41000e+09    96504    0.02%
  28524  4219   1.41000e+09     6   1.41025e+09   1.41000e+09    96507    0.02%
Elapsed time = 4.71 sec. (3827.30 ticks, tree = 1.50 MB, solutions = 13)
* 37138  6165      integral     0   1.41022e+09   1.41000e+09   126454    0.02%
  37772  6315    infeasible         1.41022e+09   1.41000e+09   128907    0.02%
  37773  6316   1.41000e+09     6   1.41022e+09   1.41000e+09   128908    0.02%
  37774  6317   1.41000e+09     5   1.41022e+09   1.41000e+09   128909    0.02%
  37775  6318   1.41000e+09     5   1.41022e+09   1.41000e+09   128910    0.02%
  37776  6319   1.41000e+09     6   1.41022e+09   1.41000e+09   128911    0.02%
  37777  6318    infeasible         1.41022e+09   1.41000e+09   128919    0.02%
  37778  6319   1.41000e+09     6   1.41022e+09   1.41000e+09   128920    0.02%
  37779  6320   1.41000e+09     6   1.41022e+09   1.41000e+09   128921    0.02%
  37780  6321   1.41000e+09     5   1.41022e+09   1.41000e+09   128925    0.02%
  37781  6322   1.41000e+09     6   1.41022e+09   1.41000e+09   128926    0.02%
Elapsed time = 5.87 sec. (4782.05 ticks, tree = 2.11 MB, solutions = 14)
  46379  6754   1.41000e+09     6   1.41022e+09   1.41000e+09   157253    0.02%
  46380  6755   1.41000e+09     6   1.41022e+09   1.41000e+09   157257    0.02%
  46381  6756   1.41000e+09     6   1.41022e+09   1.41000e+09   157258    0.02%
  46382  6757   1.41000e+09     6   1.41022e+09   1.41000e+09   157259    0.02%
  46383  6756        cutoff         1.41022e+09   1.41000e+09   157264    0.02%
  46384  6757   1.41000e+09     8   1.41022e+09   1.41000e+09   157269    0.02%
  46385  6756        cutoff         1.41022e+09   1.41000e+09   157273    0.02%
  46386  6757   1.41000e+09     8   1.41022e+09   1.41000e+09   157274    0.02%
  46387  6756    infeasible         1.41022e+09   1.41000e+09   157274    0.02%
  46388  6755        cutoff         1.41022e+09   1.41000e+09   157278    0.02%
Elapsed time = 7.01 sec. (5736.16 ticks, tree = 2.24 MB, solutions = 14)
  54873  7306   1.41000e+09     5   1.41022e+09   1.41000e+09   187942    0.02%
  54874  7305        cutoff         1.41022e+09   1.41000e+09   187947    0.02%
  54875  7304        cutoff         1.41022e+09   1.41000e+09   187950    0.02%
  54876  7303        cutoff         1.41022e+09   1.41000e+09   187955    0.02%
  54877  7302    infeasible         1.41022e+09   1.41000e+09   187955    0.02%
  54878  7301        cutoff         1.41022e+09   1.41000e+09   187958    0.02%
  54879  7300        cutoff         1.41022e+09   1.41000e+09   187965    0.02%
  54880  7299        cutoff         1.41022e+09   1.41000e+09   187978    0.02%
  54881  7298        cutoff         1.41022e+09   1.41000e+09   188003    0.02%
  54882  7297        cutoff         1.41022e+09   1.41000e+09   188013    0.02%
Elapsed time = 8.18 sec. (6690.88 ticks, tree = 2.42 MB, solutions = 14)
  62952  7642   1.41000e+09     6   1.41022e+09   1.41000e+09   216032    0.02%
  62953  7643   1.41000e+09     6   1.41022e+09   1.41000e+09   216033    0.02%
  62954  7642        cutoff         1.41022e+09   1.41000e+09   216036    0.02%
  62955  7643   1.41000e+09     5   1.41022e+09   1.41000e+09   216038    0.02%
  62956  7644   1.41000e+09     5   1.41022e+09   1.41000e+09   216039    0.02%
  62957  7645   1.41000e+09     6   1.41022e+09   1.41000e+09   216040    0.02%
  62958  7646   1.41000e+09     6   1.41022e+09   1.41000e+09   216041    0.02%
  62959  7647   1.41000e+09     6   1.41022e+09   1.41000e+09   216042    0.02%
  62960  7648   1.41000e+09     6   1.41022e+09   1.41000e+09   216043    0.02%
  62961  7648   1.41008e+09    11   1.41022e+09   1.41000e+09   216050    0.02%
Elapsed time = 9.36 sec. (7645.25 ticks, tree = 2.54 MB, solutions = 14)
* 64399  7516      integral     0   1.41012e+09   1.41000e+09   221163    0.01%

Mixed integer rounding cuts applied:  1
Gomory fractional cuts applied:  1

Root node processing (before b&c):
  Real time             =    0.01 sec. (9.21 ticks)
Sequential b&c:
  Real time             =    9.56 sec. (7814.92 ticks)
                          ------------
Total (root+branch&cut) =    9.57 sec. (7824.14 ticks)

Solution pool: 15 solutions saved.

MIP - Integer optimal, tolerance (0.0001/1e-06):  Objective =  1.4101244270e+09
Current MIP best bound =  1.4100007540e+09 (gap = 123673, 0.01%)
Solution time =    9.57 sec.  Iterations = 221163  Nodes = 64400 (7515)
Deterministic time = 7824.14 ticks  (817.50 ticks/sec)


Incumbent solution written to file '/tmp/tmpMsPYsz.cplex.sol'.
